WARNING: for repeatability, setting FPU to use double precision
 -----------------------------------------------------------------------------------------------------------------------
|                                 manysat2.0    4 thread(s) on 8 core(s)                                                |
 -----------------------------------------------------------------------------------------------------------------------
 ===============================================[ Problem Statistics ]==================================================
|                                                                                                                       |
|  Number of cores:                 4                                                                                   |
|  Number of variables:         23909                                                                                   |
|  Number of clauses:          751115                                                                                   |
|  Parse time:                   0.33 s                                                                                 |
|                                                                                                                       |
 ==============================================[ Search Statistics ]====================================================
|   Thread  | Conflicts |          ORIGINAL         |          LEARNT          |  exported  / imported      |  Progress |
|    (id)   |           |    Vars  Clauses Literals |    Limit  Clauses Lit/Cl |  (clauses by restart)      |           |
 =======================================================================================================================
|         1 |       100 |   23900   750881  2210988 |   275408      133     39 |           0  -          33 |  0.038 %  |
|         2 |       100 |   23900   750881  2210988 |   275408      130     25 |           0  -          30 |  0.038 %  |
|         3 |       100 |   23900   750881  2210988 |   275408      171     31 |           0  -          71 |  0.038 %  |
|         0 |       100 |   23900   750881  2210988 |   275323      168     22 |           0  -          68 |  0.038 %  |
|         3 |       250 |   23900   750881  2210988 |   302949      359     33 |           0  -         109 |  0.038 %  |
|         2 |       250 |   23900   750881  2210988 |   302949      332     45 |           0  -          82 |  0.038 %  |
|         1 |       250 |   23900   750881  2210988 |   302949      396     34 |           0  -         146 |  0.038 %  |
|         0 |       250 |   23900   750881  2210988 |   302855      375     47 |           0  -         125 |  0.038 %  |
|         2 |       475 |   23900   750881  2210988 |   333244      573     52 |           0  -          98 |  0.038 %  |
|         0 |       475 |   23900   750881  2210988 |   333140      632     42 |           0  -         157 |  0.038 %  |
|         1 |       475 |   23900   750881  2210988 |   333244      670     49 |           0  -         195 |  0.038 %  |
|         3 |       475 |   23900   750881  2210988 |   333244      658     34 |           0  -         183 |  0.038 %  |
|         2 |       812 |   23900   750881  2210988 |   366569      964     67 |           0  -         152 |  0.038 %  |
|         1 |       812 |   23900   750881  2210988 |   366569     1011     45 |           0  -         199 |  0.038 %  |
|         0 |       812 |   23900   750881  2210988 |   366454     1024     89 |           0  -         212 |  0.038 %  |
|         2 |      1318 |   23900   750881  2210988 |   403226     1501     69 |           0  -         183 |  0.038 %  |
|         1 |      1318 |   23900   750881  2210988 |   403226     1575     68 |           0  -         257 |  0.038 %  |
|         0 |      1318 |   23900   750881  2210988 |   403100     1572     81 |           0  -         254 |  0.038 %  |
|         3 |       812 |   23900   750881  2210988 |   366569     1104     33 |           0  -         292 |  0.038 %  |
|         1 |      2077 |   23900   750881  2210988 |   443548     2370     61 |           0  -         293 |  0.038 %  |
|         2 |      2077 |   23900   750881  2210988 |   443548     2319    100 |           0  -         242 |  0.038 %  |
|         3 |      1318 |   23900   750881  2210988 |   403226     1649     37 |           0  -         331 |  0.038 %  |
|         0 |      2077 |   23900   750881  2210988 |   443410     2408     91 |           0  -         331 |  0.038 %  |
|         2 |      3216 |   23900   750881  2210988 |   487903     3539    104 |           0  -         323 |  0.038 %  |
|         1 |      3216 |   23900   750881  2210988 |   487903     3652    111 |           0  -         436 |  0.038 %  |
|         3 |      2077 |   23900   750881  2210988 |   443548     2521     45 |           0  -         444 |  0.038 %  |
|         0 |      3216 |   23900   750881  2210988 |   487751     3688     84 |           0  -         472 |  0.038 %  |
|         3 |      3216 |   23900   750881  2210988 |   487903     3730     55 |           0  -         514 |  0.038 %  |
|         1 |      4924 |   23900   750881  2210988 |   536693     5456    139 |           0  -         532 |  0.038 %  |
|         2 |      4924 |   23900   750881  2210988 |   536693     5334    144 |           0  -         410 |  0.038 %  |
|         0 |      4924 |   23900   750881  2210988 |   536526     5496     95 |           0  -         572 |  0.038 %  |
|         3 |      4924 |   23900   750881  2210988 |   536693     5552     60 |           0  -         628 |  0.038 %  |
|         2 |      7486 |   23900   750881  2210988 |   590363     8011    150 |           0  -         525 |  0.038 %  |
|         1 |      7486 |   23900   750881  2210988 |   590363     8172    144 |           0  -         686 |  0.038 %  |
|         0 |      7486 |   23900   750881  2210988 |   590179     8141     93 |           0  -         655 |  0.038 %  |
|         3 |      7486 |   23900   750881  2210988 |   590363     8214     81 |           0  -         728 |  0.038 %  |
|         2 |     11330 |   23900   750881  2210988 |   649399    11963    151 |           0  -         633 |  0.038 %  |
|         1 |     11330 |   23900   750881  2210988 |   649399    12127    134 |           0  -         797 |  0.038 %  |
|         0 |     11330 |   23900   750881  2210988 |   649197    12213    103 |           0  -         883 |  0.038 %  |
|         3 |     11330 |   23900   750881  2210988 |   649399    12298     85 |           0  -         968 |  0.038 %  |
|         2 |     17096 |   23900   750881  2210988 |   714339    17885    131 |           0  -         789 |  0.038 %  |
|         1 |     17096 |   23900   750881  2210988 |   714339    18079    131 |           0  -         983 |  0.038 %  |
|         3 |     17096 |   23900   750881  2210988 |   714339    18296     92 |           0  -        1200 |  0.038 %  |
|         0 |     17096 |   23900   750881  2210988 |   714117    18235    105 |           0  -        1139 |  0.038 %  |
|         2 |     25745 |   23900   750881  2210988 |   785773    26600    126 |           0  -         855 |  0.038 %  |
|         1 |     25745 |   23900   750881  2210988 |   785773    26839    130 |           0  -        1094 |  0.038 %  |
|         3 |     25745 |   23900   750881  2210988 |   785773    27090     91 |           0  -        1345 |  0.038 %  |
|         0 |     25745 |   23900   750881  2210988 |   785528    27032    108 |           0  -        1287 |  0.038 %  |
|         2 |     38719 |   23900   750881  2210988 |   864350    39670    141 |           0  -         951 |  0.038 %  |
|         1 |     38719 |   23900   750881  2210988 |   864350    40024    137 |           0  -        1305 |  0.038 %  |
|         3 |     38719 |   23900   750881  2210988 |   864350    40252     91 |           0  -        1533 |  0.038 %  |
|         0 |     38719 |   23900   750881  2210988 |   864081    40157    126 |           0  -        1438 |  0.038 %  |
|         2 |     58180 |   23900   750881  2210988 |   950785    59289    128 |           0  -        1109 |  0.038 %  |
|         1 |     58180 |   23900   750881  2210988 |   950785    59610    137 |           0  -        1430 |  0.038 %  |
|         0 |     58180 |   23900   750881  2210988 |   950489    59680    133 |           0  -        1500 |  0.038 %  |
|         3 |     58180 |   23900   750881  2210988 |   950785    59895     86 |           0  -        1715 |  0.038 %  |
|         0 |     87372 |   23900   750881  2210988 |  1045538    89005    135 |           0  -        1633 |  0.038 %  |
|         2 |     87372 |   23900   750881  2210988 |  1045864    88588    116 |           0  -        1216 |  0.038 %  |
|         1 |     87372 |   23900   750881  2210988 |  1045864    88985    140 |           0  -        1613 |  0.038 %  |
|         3 |     87372 |   23900   750881  2210988 |  1045864    89191     91 |           0  -        1819 |  0.038 %  |
|         1 |    131161 |   23900   750881  2210988 |  1150451   132961    137 |           0  -        1800 |  0.038 %  |
|         2 |    131161 |   23900   750881  2210988 |  1150451   132526    109 |           0  -        1365 |  0.038 %  |
|         0 |    131161 |   23900   750881  2210988 |  1150092   133031    138 |           0  -        1870 |  0.038 %  |
|         3 |    131161 |   23900   750881  2210988 |  1150451   133121     87 |           0  -        1960 |  0.038 %  |
|         0 |    196845 |   23900   750881  2210988 |  1265101   199262    136 |           0  -        2417 |  0.038 %  |
|         1 |    196845 |   23900   750881  2210988 |  1265496   199280    131 |           0  -        2435 |  0.038 %  |
|         3 |    196845 |   23900   750881  2210988 |  1265496   198979    159 |           0  -        2134 |  0.038 %  |
|         2 |    196845 |   23900   750881  2210988 |  1265496   198770     99 |           0  -        1925 |  0.038 %  |
|         1 |    295371 |   23900   750881  2210988 |  1392045   298014    122 |           0  -        2643 |  0.038 %  |
|         2 |    295371 |   23900   750881  2210988 |  1392045   297428     90 |           0  -        2057 |  0.038 %  |
|         0 |    295371 |   23900   750881  2210988 |  1391612   298141    123 |           0  -        2770 |  0.038 %  |
